sat
(
  (define-fun ProcProv12 () Int
    2)
  (define-fun C5_VM10 () Int
    0)
  (define-fun MemProv2 () Int
    3750)
  (define-fun VM1Type () Int
    37)
  (define-fun StorageProv3 () Int
    2000)
  (define-fun C2_VM9 () Int
    1)
  (define-fun C1_VM12 () Int
    0)
  (define-fun MemProv4 () Int
    3750)
  (define-fun MemProv1 () Int
    3750)
  (define-fun C5_VM1 () Int
    0)
  (define-fun MemProv13 () Int
    3750)
  (define-fun ProcProv10 () Int
    2)
  (define-fun C2_VM11 () Int
    0)
  (define-fun C4_VM6 () Int
    0)
  (define-fun C5_VM5 () Int
    1)
  (define-fun VM4Type () Int
    37)
  (define-fun C3_VM3 () Int
    0)
  (define-fun C1_VM9 () Int
    0)
  (define-fun StorageProv6 () Int
    2000)
  (define-fun C1_VM11 () Int
    1)
  (define-fun VM11Type () Int
    37)
  (define-fun StorageProv11 () Int
    2000)
  (define-fun C3_VM13 () Int
    0)
  (define-fun C3_VM9 () Int
    0)
  (define-fun StorageProv2 () Int
    2000)
  (define-fun C1_VM8 () Int
    1)
  (define-fun C4_VM7 () Int
    0)
  (define-fun PriceProv10 () Int
    128)
  (define-fun C1_VM13 () Int
    1)
  (define-fun ProcProv13 () Int
    2)
  (define-fun StorageProv10 () Int
    2000)
  (define-fun VM12Type () Int
    37)
  (define-fun C4_VM1 () Int
    0)
  (define-fun MemProv10 () Int
    3750)
  (define-fun C4_VM12 () Int
    0)
  (define-fun MemProv12 () Int
    3750)
  (define-fun C1_VM7 () Int
    0)
  (define-fun C5_VM9 () Int
    0)
  (define-fun C4_VM11 () Int
    0)
  (define-fun C3_VM8 () Int
    0)
  (define-fun C2_VM10 () Int
    0)
  (define-fun StorageProv1 () Int
    2000)
  (define-fun C2_VM8 () Int
    0)
  (define-fun PriceProv11 () Int
    128)
  (define-fun VM13Type () Int
    37)
  (define-fun C1_VM3 () Int
    1)
  (define-fun C4_VM4 () Int
    0)
  (define-fun MemProv5 () Int
    7500)
  (define-fun C4_VM5 () Int
    0)
  (define-fun StorageProv7 () Int
    2000)
  (define-fun C5_VM4 () Int
    0)
  (define-fun StorageProv4 () Int
    2000)
  (define-fun C1_VM2 () Int
    1)
  (define-fun C4_VM13 () Int
    0)
  (define-fun PriceProv8 () Int
    128)
  (define-fun StorageProv8 () Int
    2000)
  (define-fun MemProv8 () Int
    3750)
  (define-fun C4_VM2 () Int
    0)
  (define-fun C3_VM4 () Int
    0)
  (define-fun ProcProv7 () Int
    4)
  (define-fun VM3Type () Int
    37)
  (define-fun C2_VM3 () Int
    0)
  (define-fun StorageProv5 () Int
    2000)
  (define-fun C5_VM2 () Int
    0)
  (define-fun MemProv3 () Int
    3750)
  (define-fun VM8Type () Int
    37)
  (define-fun C5_VM13 () Int
    0)
  (define-fun C3_VM11 () Int
    0)
  (define-fun ProcProv3 () Int
    2)
  (define-fun VM10Type () Int
    37)
  (define-fun C3_VM7 () Int
    1)
  (define-fun C4_VM9 () Int
    0)
  (define-fun C1_VM4 () Int
    0)
  (define-fun C2_VM1 () Int
    1)
  (define-fun MemProv11 () Int
    3750)
  (define-fun ProcProv5 () Int
    4)
  (define-fun C2_VM7 () Int
    0)
  (define-fun C5_VM11 () Int
    0)
  (define-fun C3_VM5 () Int
    0)
  (define-fun PriceProv7 () Int
    252)
  (define-fun PriceProv2 () Int
    128)
  (define-fun C3_VM6 () Int
    0)
  (define-fun PriceProv6 () Int
    252)
  (define-fun ProcProv4 () Int
    2)
  (define-fun ProcProv11 () Int
    2)
  (define-fun PriceProv4 () Int
    128)
  (define-fun C3_VM12 () Int
    0)
  (define-fun ProcProv6 () Int
    4)
  (define-fun C2_VM12 () Int
    1)
  (define-fun PriceProv1 () Int
    128)
  (define-fun C2_VM4 () Int
    1)
  (define-fun C5_VM7 () Int
    0)
  (define-fun PriceProv5 () Int
    252)
  (define-fun ProcProv8 () Int
    2)
  (define-fun VM7Type () Int
    26)
  (define-fun C1_VM5 () Int
    0)
  (define-fun StorageProv12 () Int
    2000)
  (define-fun C5_VM6 () Int
    1)
  (define-fun VM5Type () Int
    26)
  (define-fun C1_VM10 () Int
    1)
  (define-fun StorageProv13 () Int
    2000)
  (define-fun C1_VM6 () Int
    0)
  (define-fun MemProv6 () Int
    7500)
  (define-fun C2_VM2 () Int
    0)
  (define-fun C5_VM12 () Int
    0)
  (define-fun C5_VM8 () Int
    0)
  (define-fun PriceProv12 () Int
    128)
  (define-fun C2_VM6 () Int
    0)
  (define-fun StorageProv9 () Int
    2000)
  (define-fun C3_VM2 () Int
    0)
  (define-fun PriceProv9 () Int
    128)
  (define-fun C4_VM3 () Int
    0)
  (define-fun MemProv7 () Int
    7500)
  (define-fun C2_VM5 () Int
    0)
  (define-fun MemProv9 () Int
    3750)
  (define-fun C2_VM13 () Int
    0)
  (define-fun PriceProv3 () Int
    128)
  (define-fun C4_VM10 () Int
    0)
  (define-fun C5_VM3 () Int
    0)
  (define-fun VM6Type () Int
    26)
  (define-fun C3_VM10 () Int
    0)
  (define-fun C1_VM1 () Int
    0)
  (define-fun ProcProv2 () Int
    2)
  (define-fun VM2Type () Int
    37)
  (define-fun ProcProv1 () Int
    2)
  (define-fun ProcProv9 () Int
    2)
  (define-fun C4_VM8 () Int
    0)
  (define-fun C3_VM1 () Int
    0)
  (define-fun PriceProv13 () Int
    128)
  (define-fun VM9Type () Int
    37)
)
(objectives
 ( 52)
 ((+ 0
   PriceProv1
   PriceProv2
   PriceProv3
   PriceProv4
   PriceProv5
   PriceProv6
   PriceProv7
   PriceProv8
   PriceProv9
   PriceProv10
   PriceProv11
   PriceProv12
   PriceProv13) 2036)
)
(:added-eqs                   901443
 :arith-eq-adapter            134182
 :arith-bound-propagations-lp 895
 :arith-conflicts             70
 :arith-diseq                 638882
 :arith-fixed-eqs             22666
 :arith-lower                 540063
 :arith-make-feasible         103812
 :arith-max-columns           232
 :arith-max-rows              41
 :arith-upper                 872582
 :binary-propagations         3111149
 :conflicts                   5418
 :decisions                   255346
 :del-clause                  98716
 :final-checks                48
 :max-memory                  53.38
 :maxsat-cores                13
 :memory                      53.18
 :minimized-lits              51538
 :mk-bool-var                 254460
 :mk-clause                   102469
 :mk-clause-binary            9784
 :num-allocs                  632844232
 :num-checks                  69
 :pb-conflicts                3492
 :pb-predicates               995
 :pb-propagations             19568
 :pb-resolves                 3221
 :propagations                4200701
 :restarts                    33
 :rlimit-count                28318424
 :time                        1.61
 :total-time                  1.61)
